c 
c G(n,p) graph
c graph gen seed     : 9283
c number of vertices : 30
c max number of edges: 500
c edge probability   : 0.400000
c data structure     : sparse
c
c           Graph Stats
c number of vertices  : 30
c nonisolated vertices: 30
c number of edges     : 167
c edge density        : 0.383908
c max degree          : 16
c avg degree          : 11.13
c min degree          : 6
p col 30 167
e 1 25
e 1 19
e 1 18
e 1 17
e 1 13
e 1 12
e 1 11
e 1 9
e 1 8
e 1 7
e 1 2
e 2 24
e 2 23
e 2 20
e 2 17
e 2 9
e 3 29
e 3 28
e 3 25
e 3 23
e 3 22
e 3 21
e 3 20
e 3 19
e 3 16
e 3 13
e 3 5
e 4 30
e 4 26
e 4 25
e 4 24
e 4 23
e 4 22
e 4 20
e 4 18
e 4 13
e 4 12
e 4 9
e 5 30
e 5 27
e 5 23
e 5 21
e 5 18
e 5 17
e 5 12
e 5 10
e 5 9
e 6 30
e 6 28
e 6 27
e 6 21
e 6 20
e 6 19
e 6 16
e 6 15
e 6 11
e 6 9
e 7 30
e 7 29
e 7 28
e 7 25
e 7 23
e 7 22
e 7 15
e 7 13
e 7 8
e 8 30
e 8 27
e 8 25
e 8 21
e 8 20
e 8 18
e 8 16
e 8 13
e 8 10
e 9 30
e 9 29
e 9 27
e 9 25
e 9 24
e 9 22
e 9 21
e 9 15
e 9 14
e 9 12
e 9 10
e 10 28
e 10 23
e 10 21
e 10 17
e 10 15
e 10 11
e 11 30
e 11 28
e 11 25
e 11 18
e 11 17
e 11 16
e 11 15
e 11 13
e 11 12
e 12 26
e 12 21
e 12 18
e 12 16
e 12 15
e 12 14
e 13 30
e 13 29
e 13 27
e 13 26
e 13 24
e 13 19
e 13 18
e 13 15
e 14 29
e 14 25
e 14 24
e 14 22
e 14 21
e 14 15
e 15 30
e 15 25
e 15 23
e 15 22
e 15 21
e 15 20
e 15 19
e 15 18
e 16 26
e 16 23
e 16 22
e 17 28
e 17 26
e 17 25
e 17 23
e 17 19
e 18 30
e 18 28
e 18 27
e 18 21
e 18 19
e 19 25
e 20 30
e 20 28
e 20 26
e 20 21
e 21 30
e 21 29
e 21 26
e 22 29
e 22 25
e 22 23
e 23 30
e 23 29
e 23 28
e 23 27
e 23 25
e 23 24
e 24 30
e 24 26
e 24 25
e 25 27
e 25 26
e 26 29
e 27 30
e 28 30
